db/data/3147815175189502667913282240201400917440.z3.out
sat
-------------------
115.671922195
